c preprocessed version of KneserGraph_8_3, 56 vertices, 280 edges
p td 56 280
0 8
0 15
0 17
0 24
0 31
0 33
0 45
0 47
0 50
0 55
1 2
1 3
1 8
1 9
1 10
1 12
1 14
1 18
1 20
1 30
2 7
2 25
2 26
2 28
2 31
2 41
2 46
2 49
2 51
3 5
3 26
3 31
3 40
3 46
3 47
3 48
3 50
4 9
4 19
4 20
4 30
4 38
4 42
4 51
5 9
5 14
5 18
5 19
5 33
5 36
5 42
5 51
6 10
6 15
6 17
6 22
6 25
6 32
6 38
6 50
7 8
7 14
7 17
7 20
7 33
7 36
7 42
8 19
8 25
8 39
8 44
8 49
9 15
9 16
9 17
9 29
9 40
9 50
10 26
10 31
10 37
10 42
10 44
10 46
11 25
11 30
11 31
11 32
11 38
11 41
11 47
11 50
11 51
12 4
12 15
12 16
12 24
12 26
12 27
12 31
12 33
12 46
13 14
13 15
13 24
13 31
13 33
13 35
13 36
13 37
13 42
14 25
14 32
14 38
14 40
14 49
14 50
15 20
15 28
15 30
15 43
15 48
16 20
16 30
16 32
16 37
16 39
16 41
16 47
17 28
17 37
17 39
17 41
17 46
18 40
18 43
18 44
18 50
19 24
19 27
19 29
19 46
19 47
19 48
20 21
20 22
20 25
20 49
21 31
21 37
21 42
21 47
21 50
22 26
22 40
22 42
22 43
22 44
22 48
23 8
23 10
23 17
23 18
23 30
23 33
23 34
23 38
23 51
23 55
24 38
24 40
24 43
24 44
24 49
25 27
25 29
25 43
25 48
26 32
26 35
26 39
27 32
27 38
27 39
27 50
28 35
28 36
28 50
29 31
29 37
29 39
29 41
29 42
29 51
30 35
30 36
30 44
31 43
32 33
32 36
32 42
32 44
33 39
33 43
34 5
34 6
34 20
34 37
34 43
34 46
34 47
34 48
34 54
35 38
35 40
35 48
35 49
35 51
36 41
36 46
36 47
36 48
37 38
37 40
37 49
38 46
39 40
39 48
40 41
41 43
41 44
43 51
44 47
45 6
45 9
45 19
45 26
45 28
45 42
45 44
45 49
45 51
47 49
52 4
52 7
52 18
52 21
52 22
52 24
52 27
52 28
52 41
52 46
53 8
53 10
53 13
53 18
53 21
53 27
53 28
53 29
53 30
53 48
54 16
54 18
54 21
54 26
54 27
54 28
54 33
54 49
54 51
55 3
55 4
55 7
55 11
55 21
55 22
55 35
55 39
